System = Si
RWIGS = 1.312
EDIFF = 1E-6
IBRION = 2
ISIF = 3
NSW = 50
