Si
3.9
  0.500000000 0.500000000 0.000000000
  0.000000000 0.500000000 0.500000000
  0.500000000 0.000000000 0.500000000
 Si
  2
Direct
  0.0000000000000000  0.0000000000000000  0.0000000000000000
  0.2500000000000000  0.2500000000000000  0.2500000000000000

