MnO AFM
4.435
 1.0  0.5  0.5
 0.5  1.0  0.5
 0.5  0.5  1.0
Mn O
2 2
Cartesian
0.0  0.0  0.0
1.0  1.0  1.0
0.5  0.5  0.5
1.5  1.5  1.5

