Al                                      
   4.05000000000000     
     0.9988970280996075    0.0000000000000000    0.0000000000000000
     0.0000000000000000    0.9988970280996075    0.0000000000000000
     0.0000000000000000    0.0000000000000000    0.9988970280996075
   Al
     4
Direct
  0.0000000000000000  0.0000000000000000  0.0000000000000000
  0.0000000000000000  0.5000000000000000  0.5000000000000000
  0.5000000000000000  0.0000000000000000  0.5000000000000000
  0.5000000000000000  0.5000000000000000  0.0000000000000000
 
  0.00000000E+00  0.00000000E+00  0.00000000E+00
  0.00000000E+00  0.00000000E+00  0.00000000E+00
  0.00000000E+00  0.00000000E+00  0.00000000E+00
  0.00000000E+00  0.00000000E+00  0.00000000E+00
