System = bcc Al
RWIGS = 1.402
EDIFF = 1E-6
IBRION = 2
ISIF = 3
NSW = 50
