K-points along high symmetry lines for bcc
20
Line-mode
reciprocal
   0.0000000000     0.0000000000     0.0000000000     Gamma
  -0.5000000000     0.5000000000     0.5000000000     H

  -0.5000000000     0.5000000000     0.5000000000     H
   0.0000000000     0.5000000000     0.0000000000     N

   0.0000000000     0.5000000000     0.0000000000     N
   0.2500000000     0.2500000000     0.2500000000     P

   0.2500000000     0.2500000000     0.2500000000     P
   0.0000000000     0.0000000000     0.0000000000     Gamma

   0.0000000000     0.0000000000     0.0000000000     Gamma
   0.0000000000     0.5000000000     0.0000000000     N
