Na                                      
   4.29060000000000     
     0.9433337123112659    0.0000000000000000    0.0000000000000000
     0.0000000000000000    0.9433337123112659    0.0000000000000000
     0.0000000000000000    0.0000000000000000    0.9433337123112659
   Na
     2
Direct
  0.0000000000000000  0.0000000000000000  0.0000000000000000
  0.5000000000000000  0.5000000000000000  0.5000000000000000
 
  0.00000000E+00  0.00000000E+00  0.00000000E+00
  0.00000000E+00  0.00000000E+00  0.00000000E+00
