Na
4.2906
   1.00000 0.00000 0.00000
   0.00000 1.00000 0.00000
   0.00000 0.00000 1.00000
   Na
   2
Direct
     0.000000000         0.000000000         0.000000000
     0.500000000         0.500000000        0.50000000000
