K-points along high symmetry lines for FCC
 40
Line-mode
reciprocal
   0.5000000000     0.5000000000     0.5000000000     L
   0.3750000000     0.7500000000     0.3750000000     K

   0.3750000000     0.7500000000     0.3750000000     K
   0.2500000000     0.7500000000     0.5000000000     W
   
   0.2500000000     0.7500000000     0.5000000000     W
   0.0000000000     0.0000000000     0.0000000000     Gamma
   
   0.0000000000     0.0000000000     0.0000000000     Gamma
   0.0000000000     0.5000000000     0.5000000000     X
   
   0.0000000000     0.5000000000     0.5000000000     X
   0.2500000000     0.7500000000     0.5000000000     W
   
   0.2500000000     0.7500000000     0.5000000000     W
   0.5000000000     0.5000000000     0.5000000000     L
   
   0.5000000000     0.5000000000     0.5000000000     L
   0.0000000000     0.0000000000     0.0000000000     Gamma

   0.0000000000     0.0000000000     0.0000000000     Gamma
   0.3750000000     0.7500000000     0.3750000000     K

