System=AuAl2
PREC=high
ISIF=3
IBRION=2
NSW=100
EDIFF=0.000001
RWIGS=1.503 1.402
