AuAl2
6.500000
0.0 0.5 0.5
0.5 0.0 0.5
0.5 0.5 0.0
1 2 
Direct
0.0 0.0 0.0
0.25 0.25 0.25
0.75 0.75 0.75


