System=AuAl2
NPAR=1
ISMEAR=0
SIGMA = 0.2
LOPTICS=.TRUE.
NBANDS=30
RWIGS=1.503 1.402
