AuAl2                                   
   6.50000000000000     
    -0.0000000000000000    0.4585061843068762    0.4585061843068762
     0.4585061843068762    0.0000000000000000    0.4585061843068762
     0.4585061843068762    0.4585061843068762    0.0000000000000000
   Au   Al
     1     2
Direct
 -0.0000000000000000  0.0000000000000000  0.0000000000000000
  0.2500000000000000  0.2500000000000000  0.2500000000000000
  0.7500000000000000  0.7500000000000000  0.7500000000000000
 
  0.00000000E+00  0.00000000E+00  0.00000000E+00
  0.00000000E+00  0.00000000E+00  0.00000000E+00
  0.00000000E+00  0.00000000E+00  0.00000000E+00
