System = bcc Na
RWIGS = 1.402
EDIFF = 1E-6
