System = bcc Fe
RWIGS = 1.302
EDIFF = 1E-6
ENCUT = 320
ISPIN = 2
MAGMOM = 3
