Fe bulk bcc
2.87
   -0.5  0.5  0.5
    0.5 -0.5  0.5
    0.5  0.5 -0.5
Si
 1
Direct
 0.00000000 0.00000000 0.00000000
