System=AuAl2 soc
NPAR=1
ISMEAR=0
SIGMA=0.2
MAGMOM 0 0 0.000001 0 0 0.000001 0 0 0.000001
LSORBIT=.TRUE.
LOPTICS=.TRUE.
SAXIS=0 0 1
GGA_COMPAT=.FALSE.
NBANDS=60
RWIGS=1.503 1.402
