Na
4.207877232
1.0000000000         0.0000000000         0.0000000000
0.0000000000         1.0000000000         0.0000000000
0.0000000000         0.0000000000         1.0000000000
Na
2
Direct
0.000000000         0.000000000         0.000000000
0.500000000         0.500000000         0.500000000
