Al
4.05
    0.0  0.5  0.5
    0.5  0.0  0.5
    0.5  0.5  0.0
   Al
    1
Direct
     0.000000000         0.000000000         0.000000000
