Na
4.2906
   0.50000 0.50000 -0.50000
   -0.50000 0.50000 0.50000
   0.50000 -0.50000 0.50000
   Na
   1
Direct
     0.000000000         0.000000000         0.000000000
