System = bcc Fe
RWIGS = 1.302
EDIFF = 1E-6
